instances/knapsack/knapsack_interdiction/knapsack_40_1_2.kp
42
40
6191

717 72.0 817 121.66
991 99.0 1091 166.02
313 31.0 413 68.62
776 78.0 876 160.58
959 96.0 1059 154.65
329 33.0 429 79.54
176 18.0 276 48.42
565 56.0 665 90.89
129 13.0 229 26.34
819 82.0 919 178.93
911 91.0 1011 173.62
186 19.0 286 43.63
434 43.0 534 74.69
707 71.0 807 152.94
73 7.0 173 23.01
413 41.0 513 62.56
474 47.0 574 95.29
840 84.0 940 138.5
263 26.0 363 54.91
556 56.0 656 68.49
785 78.0 885 92.63
216 22.0 316 48.3
64 6.0 164 21.18
420 42.0 520 57.6
329 33.0 429 53.26
404 40.0 504 95.96
113 11.0 213 24.19
51 5.0 151 25.72
714 71.0 814 103.52
320 32.0 420 80.08
754 75.0 854 94.13
653 65.0 753 80.82
922 92.0 1022 158.59
551 55.0 651 74.63
109 11.0 209 37.1
947 95.0 1047 186.51
6 1.0 106 18.11
20 2.0 120 12.3
427 43.0 527 84.49
139 14.0 239 39.49

42
[983]

[[1, 9, 5, 15, 24, 3, 4, 6, 10, 3, 7, 12, 23, 7, 16, 13, 21, 21, 23, 2, 15, 4, 1, 24, 8, 20, 15, 5, 24, 3, 13, 6, 7, 8, 3, 20, 3, 12, 8, 4]]

[[683, 236, 172, 16, 830, 94, 779, 446, 360, 279, 553, 299, 865, 943, 611, 397, 817, 588, 450, 420, 983, 261, 715, 85, 576, 105, 972, 604, 440, 165, 876, 950, 601, 100, 616, 84, 45, 760, 902, 219]]
